0 154 138 12 177 150 80 68 121 29 24 163 134 0 0 28 76 196 116 184 77 158 3 79 129 169 78 34 0 0 111 50 102 157 33 185 81 120 164 135 0 0 176 1 51 9 161 103 188 71 136 35 65 0 0 27 132 69 162 101 70 30 122 20 128 160 131 32 66 0 0 167 190 31 189 10 108 90 126 63 181 0 0 146 127 88 148 62 159 182 19 107 175 11 64 0 0 52 153 106 194 7 48 168 47 36 143 49 123 0 0 89 166 18 83 199 114 8 174 125 45 46 124 82 60 0 0 156 147 6 118 5 84 173 61 113 17 86 0 0 112 183 96 104 99 93 85 16 141 0 0 94 59 151 92 37 98 100 193 91 191 44 119 140 38 0 0 13 137 117 95 97 87 144 57 172 42 142 14 192 43 15 0 0 152 58 40 73 171 74 133 22 41 145 115 178 2 0 0 53 105 180 21 198 72 197 75 56 186 23 0 0 26 149 179 110 155 4 139 187 39 170 67 0 